20
1 0 4
2 0 5
2 1 3
3 0 3
3 1 1
3 2 1
4 0 5
4 1 4
4 2 4
4 3 4
5 0 1
5 1 1
5 2 5
5 3 4
5 4 5
6 0 3
6 1 1
6 2 2
6 3 3
6 4 3
6 5 2
7 0 2
7 1 4
7 2 2
7 3 5
7 4 2
7 5 1
7 6 5
8 0 3
8 1 3
8 2 5
8 3 5
8 4 4
8 5 2
8 6 2
8 7 2
9 0 3
9 1 5
9 2 4
9 3 4
9 4 3
9 5 3
9 6 1
9 7 2
9 8 2
10 0 5
10 1 1
10 2 5
10 3 1
10 4 4
10 5 2
10 6 2
10 7 4
10 8 2
10 9 2
11 0 5
11 1 3
11 2 2
11 3 5
11 4 5
11 5 4
11 6 4
11 7 4
11 8 4
11 9 3
11 10 3
12 0 5
12 1 4
12 2 5
12 3 4
12 4 5
12 5 2
12 6 2
12 7 1
12 8 4
12 9 3
12 10 2
12 11 3
13 0 1
13 1 5
13 2 5
13 3 3
13 4 1
13 5 3
13 6 3
13 7 1
13 8 5
13 9 5
13 10 4
13 11 5
13 12 4
14 0 5
14 1 5
14 2 4
14 3 3
14 4 4
14 5 5
14 6 3
14 7 2
14 8 4
14 9 3
14 10 3
14 11 4
14 12 3
14 13 4
15 0 4
15 1 1
15 2 3
15 3 5
15 4 2
15 5 3
15 6 3
15 7 4
15 8 2
15 9 4
15 10 4
15 11 5
15 12 4
15 13 3
15 14 5
16 0 5
16 1 4
16 2 2
16 3 5
16 4 2
16 5 4
16 6 1
16 7 4
16 8 2
16 9 4
16 10 4
16 11 2
16 12 1
16 13 1
16 14 4
16 15 3
17 0 2
17 1 5
17 2 4
17 3 4
17 4 2
17 5 5
17 6 5
17 7 2
17 8 2
17 9 1
17 10 3
17 11 5
17 12 1
17 13 5
17 14 4
17 15 2
17 16 3
18 0 1
18 1 4
18 2 4
18 3 4
18 4 4
18 5 1
18 6 4
18 7 5
18 8 2
18 9 5
18 10 4
18 11 3
18 12 1
18 13 4
18 14 4
18 15 3
18 16 5
18 17 1
19 0 5
19 1 1
19 2 1
19 3 5
19 4 2
19 5 2
19 6 2
19 7 4
19 8 5
19 9 2
19 10 3
19 11 5
19 12 3
19 13 2
19 14 3
19 15 1
19 16 2
19 17 2
19 18 3
